DATASET = "thpack3";
INSTANCE = "037";

WIDTH = 233;
HEIGHT = 220;
LENGTH = 587;

NO_OF_SHAPES = 8;
size = [|
  98,73,44 |
  60,60,38 |
  105,73,60 |
  90,77,52 |
  66,58,24 |
  106,76,55 |
  55,44,36 |
  82,58,23 |
|];

verticality = [|
  0,1,1 |
  1,1,1 |
  1,1,1 |
  1,1,1 |
  0,0,1 |
  1,1,1 |
  1,1,1 |
  0,0,1 |
|];

box_count = [
  13,
  12,
  9,
  21,
  12,
  20,
  11,
  14,
];
